; aiokafka :: corpus-study/repo_src/aiokafka/aiokafka/consumer/group_coordinator.py :: LOCK 'GroupCoordinator._coordinator_lookup_lock' :: naive encoding (verdict: unsat)
; Generated by snf-pipeline (encoder.py) -- run with any
; SMT-LIB2-compliant solver, e.g. `z3 aiokafka__corpus-study_repo_src_aiokafka_aiokafka_consumer_group_coordinator.py__GroupCoordinator._coordinator_lookup_lock__naive.smt2`
; benchmark generated from python API
(set-info :status unknown)
(assert
 false)
(check-sat)
